c nIsolatedPIs 20
c maxPI 12
p cnf 34 67
c gate 13 -6 -12 0
-6 -13 0
-12 -13 0
6 12 13 0
c gate 14 6 12 0
6 -14 0
12 -14 0
-6 -12 14 0
c gate 15 -5 -11 0
-5 -15 0
-11 -15 0
5 11 15 0
c gate 16 5 11 0
5 -16 0
11 -16 0
-5 -11 16 0
c gate 17 -4 -10 0
-4 -17 0
-10 -17 0
4 10 17 0
c gate 18 4 10 0
4 -18 0
10 -18 0
-4 -10 18 0
c gate 19 -3 -9 0
-3 -19 0
-9 -19 0
3 9 19 0
c gate 20 3 9 0
3 -20 0
9 -20 0
-3 -9 20 0
c gate 21 1 7 0
1 -21 0
7 -21 0
-1 -7 21 0
c gate 22 2 21 0
2 -22 0
21 -22 0
-2 -21 22 0
c gate 23 -8 -22 0
-8 -23 0
-22 -23 0
8 22 23 0
c gate 24 -2 -21 0
-2 -24 0
-21 -24 0
2 21 24 0
c gate 25 -23 -24 0
-23 -25 0
-24 -25 0
23 24 25 0
c gate 26 -20 -25 0
-20 -26 0
-25 -26 0
20 25 26 0
c gate 27 -19 -26 0
-19 -27 0
-26 -27 0
19 26 27 0
c gate 28 -18 -27 0
-18 -28 0
-27 -28 0
18 27 28 0
c gate 29 -17 -28 0
-17 -29 0
-28 -29 0
17 28 29 0
c gate 30 -16 -29 0
-16 -30 0
-29 -30 0
16 29 30 0
c gate 31 -15 -30 0
-15 -31 0
-30 -31 0
15 30 31 0
c gate 32 -14 -31 0
-14 -32 0
-31 -32 0
14 31 32 0
c gate 33 -13 -32 0
-13 -33 0
-32 -33 0
13 32 33 0
c gate 34 -13 -33 0
-13 -34 0
-33 -34 0
13 33 34 0
c PO
34 0
